120
150
59
41
50
50
56
51
52
44
60
47
59
49
44
51
47
52
50
45
55
53
52
47
57
46
46
40
40
48
59
45
52
48
50
50
46
54
43
49
54
47
44
40
49
52
52
53
40
57
56
48
46
55
48
51
49
50
47
51
40
59
59
44
56
44
50
47
46
43
52
49
55
48
49
59
47
59
43
48
47
48
44
58
51
48
51
44
42
53
47
50
51
43
56
59
47
44
51
50
49
52
55
60
49
59
45
52
57
46
42
55
54
41
41
41
55
44
51
51
56
43
